p cnf 7230 15
-3426 -3432 3931 -3935 0
-1602 -3430 -3442 3936 0
1602 -3937 0
3442 -3937 0
-1600 -3440 3932 0
3430 -3937 0
1600 -3935 0
-3936 3937 0
-3934 3935 0
-3933 3934 0
-3932 3933 0
3440 -3935 0
3930 -3931 0
3442 -3939 0
-3930 3931 0
